unsat
(:max-memory                   18.14
 :memory                       17.95
 :nlsat-conflicts              6
 :nlsat-decisions              1
 :nlsat-irrational-assignments 1
 :nlsat-learned-added          5
 :nlsat-propagations           27
 :nlsat-stages                 5
 :num-allocs                   9529
 :rlimit-count                 9582
 :time                         0.01
 :total-time                   0.02)
